c Filename:  ii32e4.sat
c
c Source: Mauricio Resende (AT&T Bell Labs)  (mgcr@gauss.att.com)
c
c Reference: "A continuous approach to inductive inference" by
c Kamath, Karmarkar, Ramakrishnan, and Resende (Math Prog 57,
c 215--238) (1992).
c
c Note: Instance is satisfiable
c
p cnf 387 7106
 138 -375
 0 
 139 -375
 0 
 142 -375
 0 
 144 -375
 0 
 146 -375
 0 
 148 -375
 0 
 149 -375
 0 
 152 -375
 0 
 153 -375
 0 
 156 -375
 0 
 157 -375
 0 
 160 -375
 0 
 162 -375
 0 
 164 -375
 0 
 166 -375
 0 
 168 -375
 0 
 170 -375
 0 
 171 -375
 0 
 174 -375
 0 
 176 -375
 0 
 177 -375
 0 
 179 -375
 0 
 182 -375
 0 
 184 -375
 0 
 186 -375
 0 
 188 -375
 0 
 189 -375
 0 
 191 -375
 0 
 2 -376
 0 
 3 -376
 0 
 5 -376
 0 
 7 -376
 0 
 9 -376
 0 
 12 -376
 0 
 13 -376
 0 
 15 -376
 0 
 18 -376
 0 
 20 -376
 0 
 21 -376
 0 
 23 -376
 0 
 25 -376
 0 
 27 -376
 0 
 29 -376
 0 
 31 -376
 0 
 33 -376
 0 
 36 -376
 0 
 37 -376
 0 
 39 -376
 0 
 42 -376
 0 
 44 -376
 0 
 46 -376
 0 
 48 -376
 0 
 50 -376
 0 
 51 -376
 0 
 53 -376
 0 
 55 -376
 0 
 58 -376
 0 
 59 -376
 0 
 62 -376
 0 
 63 -376
 0 
 66 -377
 0 
 67 -377
 0 
 69 -377
 0 
 71 -377
 0 
 73 -377
 0 
 76 -377
 0 
 77 -377
 0 
 79 -377
 0 
 82 -377
 0 
 84 -377
 0 
 85 -377
 0 
 87 -377
 0 
 89 -377
 0 
 91 -377
 0 
 93 -377
 0 
 95 -377
 0 
 97 -377
 0 
 100 -377
 0 
 101 -377
 0 
 103 -377
 0 
 106 -377
 0 
 108 -377
 0 
 110 -377
 0 
 112 -377
 0 
 114 -377
 0 
 115 -377
 0 
 117 -377
 0 
 119 -377
 0 
 122 -377
 0 
 123 -377
 0 
 126 -377
 0 
 127 -377
 0 
 130 -378
 0 
 131 -378
 0 
 133 -378
 0 
 135 -378
 0 
 137 -378
 0 
 140 -378
 0 
 141 -378
 0 
 143 -378
 0 
 146 -378
 0 
 148 -378
 0 
 149 -378
 0 
 151 -378
 0 
 153 -378
 0 
 155 -378
 0 
 157 -378
 0 
 159 -378
 0 
 161 -378
 0 
 164 -378
 0 
 165 -378
 0 
 167 -378
 0 
 170 -378
 0 
 172 -378
 0 
 174 -378
 0 
 176 -378
 0 
 178 -378
 0 
 179 -378
 0 
 181 -378
 0 
 183 -378
 0 
 186 -378
 0 
 187 -378
 0 
 190 -378
 0 
 191 -378
 0 
 1 -379
 0 
 4 -379
 0 
 6 -379
 0 
 7 -379
 0 
 10 -379
 0 
 12 -379
 0 
 13 -379
 0 
 15 -379
 0 
 18 -379
 0 
 20 -379
 0 
 22 -379
 0 
 24 -379
 0 
 25 -379
 0 
 27 -379
 0 
 30 -379
 0 
 31 -379
 0 
 33 -379
 0 
 35 -379
 0 
 38 -379
 0 
 39 -379
 0 
 42 -379
 0 
 43 -379
 0 
 46 -379
 0 
 47 -379
 0 
 50 -379
 0 
 52 -379
 0 
 54 -379
 0 
 56 -379
 0 
 57 -379
 0 
 60 -379
 0 
 61 -379
 0 
 64 -379
 0 
 65 -380
 0 
 68 -380
 0 
 70 -380
 0 
 71 -380
 0 
 74 -380
 0 
 76 -380
 0 
 77 -380
 0 
 79 -380
 0 
 82 -380
 0 
 84 -380
 0 
 86 -380
 0 
 88 -380
 0 
 89 -380
 0 
 91 -380
 0 
 94 -380
 0 
 95 -380
 0 
 97 -380
 0 
 99 -380
 0 
 102 -380
 0 
 103 -380
 0 
 106 -380
 0 
 107 -380
 0 
 110 -380
 0 
 111 -380
 0 
 114 -380
 0 
 116 -380
 0 
 118 -380
 0 
 120 -380
 0 
 121 -380
 0 
 124 -380
 0 
 125 -380
 0 
 128 -380
 0 
 129 -381
 0 
 132 -381
 0 
 134 -381
 0 
 135 -381
 0 
 138 -381
 0 
 140 -381
 0 
 141 -381
 0 
 143 -381
 0 
 146 -381
 0 
 148 -381
 0 
 150 -381
 0 
 152 -381
 0 
 153 -381
 0 
 155 -381
 0 
 158 -381
 0 
 159 -381
 0 
 161 -381
 0 
 163 -381
 0 
 166 -381
 0 
 167 -381
 0 
 170 -381
 0 
 171 -381
 0 
 174 -381
 0 
 175 -381
 0 
 178 -381
 0 
 180 -381
 0 
 182 -381
 0 
 184 -381
 0 
 185 -381
 0 
 188 -381
 0 
 189 -381
 0 
 192 -381
 0 
 2 -382
 0 
 4 -382
 0 
 6 -382
 0 
 7 -382
 0 
 10 -382
 0 
 12 -382
 0 
 13 -382
 0 
 15 -382
 0 
 17 -382
 0 
 20 -382
 0 
 22 -382
 0 
 24 -382
 0 
 25 -382
 0 
 28 -382
 0 
 30 -382
 0 
 31 -382
 0 
 33 -382
 0 
 35 -382
 0 
 37 -382
 0 
 39 -382
 0 
 41 -382
 0 
 43 -382
 0 
 46 -382
 0 
 48 -382
 0 
 50 -382
 0 
 51 -382
 0 
 54 -382
 0 
 56 -382
 0 
 58 -382
 0 
 59 -382
 0 
 61 -382
 0 
 64 -382
 0 
 66 -383
 0 
 68 -383
 0 
 70 -383
 0 
 71 -383
 0 
 74 -383
 0 
 76 -383
 0 
 77 -383
 0 
 79 -383
 0 
 81 -383
 0 
 84 -383
 0 
 86 -383
 0 
 88 -383
 0 
 89 -383
 0 
 92 -383
 0 
 94 -383
 0 
 95 -383
 0 
 97 -383
 0 
 99 -383
 0 
 101 -383
 0 
 103 -383
 0 
 105 -383
 0 
 107 -383
 0 
 110 -383
 0 
 112 -383
 0 
 114 -383
 0 
 115 -383
 0 
 118 -383
 0 
 120 -383
 0 
 122 -383
 0 
 123 -383
 0 
 125 -383
 0 
 128 -383
 0 
 130 -384
 0 
 132 -384
 0 
 134 -384
 0 
 135 -384
 0 
 138 -384
 0 
 140 -384
 0 
 141 -384
 0 
 143 -384
 0 
 145 -384
 0 
 148 -384
 0 
 150 -384
 0 
 152 -384
 0 
 153 -384
 0 
 156 -384
 0 
 158 -384
 0 
 159 -384
 0 
 161 -384
 0 
 163 -384
 0 
 165 -384
 0 
 167 -384
 0 
 169 -384
 0 
 171 -384
 0 
 174 -384
 0 
 176 -384
 0 
 178 -384
 0 
 179 -384
 0 
 182 -384
 0 
 184 -384
 0 
 186 -384
 0 
 187 -384
 0 
 189 -384
 0 
 192 -384
 0 
 1 -385
 0 
 4 -385
 0 
 6 -385
 0 
 8 -385
 0 
 9 -385
 0 
 12 -385
 0 
 13 -385
 0 
 15 -385
 0 
 18 -385
 0 
 20 -385
 0 
 21 -385
 0 
 24 -385
 0 
 25 -385
 0 
 27 -385
 0 
 30 -385
 0 
 32 -385
 0 
 34 -385
 0 
 36 -385
 0 
 38 -385
 0 
 40 -385
 0 
 41 -385
 0 
 43 -385
 0 
 46 -385
 0 
 47 -385
 0 
 50 -385
 0 
 51 -385
 0 
 53 -385
 0 
 55 -385
 0 
 57 -385
 0 
 59 -385
 0 
 62 -385
 0 
 64 -385
 0 
 65 -386
 0 
 68 -386
 0 
 70 -386
 0 
 72 -386
 0 
 73 -386
 0 
 76 -386
 0 
 77 -386
 0 
 79 -386
 0 
 82 -386
 0 
 84 -386
 0 
 85 -386
 0 
 88 -386
 0 
 89 -386
 0 
 91 -386
 0 
 94 -386
 0 
 96 -386
 0 
 98 -386
 0 
 100 -386
 0 
 102 -386
 0 
 104 -386
 0 
 105 -386
 0 
 107 -386
 0 
 110 -386
 0 
 111 -386
 0 
 114 -386
 0 
 115 -386
 0 
 117 -386
 0 
 119 -386
 0 
 121 -386
 0 
 123 -386
 0 
 126 -386
 0 
 128 -386
 0 
 129 -387
 0 
 132 -387
 0 
 134 -387
 0 
 136 -387
 0 
 137 -387
 0 
 140 -387
 0 
 141 -387
 0 
 143 -387
 0 
 146 -387
 0 
 148 -387
 0 
 149 -387
 0 
 152 -387
 0 
 153 -387
 0 
 155 -387
 0 
 158 -387
 0 
 160 -387
 0 
 162 -387
 0 
 164 -387
 0 
 166 -387
 0 
 168 -387
 0 
 169 -387
 0 
 171 -387
 0 
 174 -387
 0 
 175 -387
 0 
 178 -387
 0 
 179 -387
 0 
 181 -387
 0 
 183 -387
 0 
 185 -387
 0